204800
22
41
45
80
8
18
32
53
100
28
52
97
95
87
10
65
38
93
42
29
67
90
86
77
21
98
47
43 1
20 16
37 12
74 4
17 60
84 31
54 61
25 99
71 35
73 34
51 58
81 5
9 39
2 48
13 36
44 7
68 76
19 30
49 79
91 72
56 15
26 88
24 33
3 40
75 66
96 63
64 85
83 46
92 27
23 82
59 57
69 89
6 78
11 14
50 62
94 55
